units metal
atom_style atomic
boundary p p p
read_data data/struct/Mg.struct
pair_style eam/fs
pair_coeff * * data/pot/Mg_mm.eam.fs Mg
neighbor 2.0 bin
neigh_modify every 1 delay 0 check yes
compute pot all pe/atom
thermo 100
min_style fire
minimize 1e-12 1e-12 10000 10000
write_dump all custom data/results/final.result id type x y z c_pot modify sort id
